4
5
0 895 474 565 423 
895 0 673 992 953 
474 673 0 943 821 
565 992 943 0 143 
423 953 821 143 0 
0 586 229 725 355 
586 0 602 575 491 
229 602 0 898 179 
725 575 898 0 897 
355 491 179 897 0 
0 385 228 498 91 
385 0 605 715 427 
228 605 0 556 243 
498 715 556 0 407 
91 427 243 407 0 
0 882 851 600 741 
882 0 209 322 203 
851 209 0 407 119 
600 322 407 0 296 
741 203 119 296 0 
